compiler/skeletons/fpga/RunRules/Simulation/maxfiles/NebStream_VECTIS_DFE_SIM/scratch/NebStreamKernel_scheduler_1_C.log
Reading model section from scheduler.mod...
95 lines were read
Reading data section from NebStreamKernel_scheduler_1_C.dat...
237 lines were read
Generating schedulingEquation...
Generating bufferingEquation...
Generating afterFlushNode...
Generating forcePairConstraints...
Generating forceAtEnd...
Generating autoVarLatencyUserMin...
Generating autoVarLatencyUserMax...
Generating fifos...
Model has been successfully generated
ipp_basic_tech:  3 row(s) and 4 column(s) removed
ipp_reduce_bnds: 1 pass(es) made, 0 bound(s) reduced
ipp_basic_tech:  0 row(s) and 0 column(s) removed
ipp_reduce_coef: 1 pass(es) made, 0 coefficient(s) reduced
lpx_intopt: presolved MIP has 59 rows, 51 columns, 148 non-zeros
lpx_intopt: 51 integer columns, none of which are binary
lpx_adv_basis: size of triangular part = 59
Solving LP relaxation...
      0:   objval =  -2.600000000e+02   infeas =   1.000000000e+00 (0)
     40:   objval =   1.222500000e+02   infeas =   0.000000000e+00 (0)
*    40:   objval =   1.222500000e+02   infeas =   0.000000000e+00 (0)
*    47:   objval =   2.920312500e+01   infeas =   0.000000000e+00 (0)
OPTIMAL SOLUTION FOUND
Integer optimization begins...
+    47: mip =     not found yet >=              -inf        (1; 0)
+    54: >>>>>   1.658000000e+03 >=   1.658000000e+03   0.0% (1; 1)
+    54: mip =   1.658000000e+03 >=     tree is empty   0.0% (0; 3)
INTEGER OPTIMAL SOLUTION FOUND
Time used:   0.0 secs
Memory used: 0.3 Mb (317210 bytes)
Model has been successfully processed
