compiler/skeletons/fpga/RunRules/Simulation/maxfiles/NebStream_VECTIS_DFE_SIM/scratch/NebStreamKernel_scheduler_1_C.out
time[NodeEvalStreamOffset_ID0_0] = 0
time[NodeCounterV1_ID6_1] = 0
time[NodeSub_ID24_2] = 0
time[NodeEq_ID25_3] = 1
time[NodeReinterpret_ID29_4] = 2
time[NodeAnd_ID28_5] = 2
time[NodeReinterpret_ID31_6] = 2
time[NodeCounterV1_ID5_7] = 0
time[NodeCounterV1_ID3_8] = 0
time[NodeEq_ID18_9] = 0
time[NodeStreamOffset_ID22_10] = 19
time[NodeMux_ID20_11] = 1
time[NodeSub_ID8_12] = 0
time[NodeEq_ID9_13] = 1
time[NodeReinterpret_ID13_14] = 2
time[NodeAnd_ID12_15] = 2
time[NodeReinterpret_ID15_16] = 2
time[NodeInput_ID16_17] = 2
time[NodeAdd_ID21_18] = 7
time[NodeOutput_ID32_19] = 19
time[NodeCounterV1_ID35_20] = 0
time[NodeStreamOffset_ID36_21] = 0
time[NodeOutputMappedReg_ID38_22] = 1
time[NodeCounterV1_ID41_23] = -3
time[NodeEq_ID44_24] = -3
time[NodeFlush_ID42_25] = -2
autoVar[loopLength] = 1
